nNurses = 158;
nHours = 35;
minHours = 7;
maxHours = 19;
maxConsec = 12;
maxPresence = 18;
demand = [17, 20, 25, 27, 32, 30, 28, 31, 33, 31, 31, 35, 33, 31, 26, 28, 32, 37, 32, 30, 25, 22, 19, 23, 24, 26, 24, 28, 23, 25, 30, 34, 38, 35, 39];
